n_res = 4;
rc = [ 0, 0, 0, 0 ];
n_tasks = 30;
d = [ 7, 4, 4, 5, 2, 1, 7, 3, 7, 6, 8, 3, 1, 8, 5, 3, 8, 2, 5, 7, 8, 8, 5, 7, 6, 4, 2, 7, 4, 10 ];
rr = [| 0, 0, 0, 0, 0, 0, 0, 0, 0, 0, 0, 0, 0, 0, 0, 0, 0, 0, 0, 0, 0, 0, 0, 0, 0, 0, 0, 0, 0, 0
      | 0, 0, 0, 0, 0, 0, 0, 0, 0, 0, 0, 0, 0, 0, 0, 0, 0, 0, 0, 0, 0, 0, 0, 0, 0, 0, 0, 0, 0, 0
      | 0, 0, 0, 0, 0, 0, 0, 0, 0, 0, 0, 0, 0, 0, 0, 0, 0, 0, 0, 0, 0, 0, 0, 0, 0, 0, 0, 0, 0, 0
      | 0, 0, 0, 0, 0, 0, 0, 0, 0, 0, 0, 0, 0, 0, 0, 0, 0, 0, 0, 0, 0, 0, 0, 0, 0, 0, 0, 0, 0, 0 |];
suc = [ { 4 },
       { 5, 7, 16 },
       { 8, 10, 17 },
       { 6, 19, 20 },
       { 14, 25 },
       { 13 },
       { 21 },
       { 9 },
       { 16 },
       { 11, 16 },
       { 12, 18, 23 },
       { 15 },
       { 22, 28 },
       { 26, 29 },
       { 28 },
       { 27 },
       { 19, 24 },
       { 24 },
       { 25, 29 },
       { 26, 30 },
       { 27 },
       { 24 },
       { 25 },
       { 30 },
       { 27 },
       { 28 },
       { 30 },
       {  },
       {  },
       {  } ];
